3 
4  39 
5  01 17 33 48 
6  03 18 33 48 
7  03 18 33 48 
8  03 18 33 48 
9  03 18 34 49 
10  04 19 34 49 
11  04 19 34 49 
12  04 19 34 49 
13  04 19 34 49 
14  04 19 34 48 
15  03 18 33 48 
16  03 18 33 48 
17  03 18 33 48 
18  03 18 34 49 
19  04 19 34 49 
20  04 19 34 49 
21  04 19 34 49 
22  08 23 38 
23 
